branch-and-cut/resultados/I080/i080-002.sol
1607
10
20 79
20 59
55 5
59 29
1 20
3 55
55 4
20 6
55 29
2 79
